(set-info :smt-lib-version 2.6)
(set-logic QF_NIA)
(set-info :source |
Generated by: Cristina Borralleras, Daniel Larraz, Albert Oliveras, Enric Rodriguez-Carbonell, Albert Rubio
Generated on: 2017-04-27
Generator: VeryMax
Application: Termination proving
Target solver: barcelogic
|)
(set-info :license "https://creativecommons.org/licenses/by/4.0/")
(set-info :category "industrial")
(set-info :status sat)
(declare-fun Nl2main_n1 () Int)
(declare-fun Nl2main_sum1 () Int)
(declare-fun Nl2main_n2 () Int)
(declare-fun Nl2main_sum2 () Int)
(declare-fun Nl2main_n3 () Int)
(declare-fun Nl2main_sum3 () Int)
(declare-fun lam0n0 () Int)
(declare-fun lam0n1 () Int)
(declare-fun lam0n2 () Int)
(declare-fun lam0n3 () Int)
(declare-fun lam0n4 () Int)
(declare-fun lam0n5 () Int)
(declare-fun lam0n6 () Int)
(declare-fun Nl2CT1 () Int)
(declare-fun Nl2CT2 () Int)
(declare-fun Nl2CT3 () Int)
(declare-fun lam1n0 () Int)
(declare-fun lam1n1 () Int)
(declare-fun lam1n2 () Int)
(declare-fun lam1n3 () Int)
(declare-fun lam1n4 () Int)
(declare-fun lam1n5 () Int)
(declare-fun lam1n6 () Int)
(declare-fun lam2n0 () Int)
(declare-fun lam2n1 () Int)
(declare-fun lam2n2 () Int)
(declare-fun lam2n3 () Int)
(declare-fun lam2n4 () Int)
(declare-fun lam2n5 () Int)
(declare-fun lam2n6 () Int)
(declare-fun lam3n0 () Int)
(declare-fun lam3n1 () Int)
(declare-fun lam3n2 () Int)
(declare-fun lam3n3 () Int)
(declare-fun lam3n4 () Int)
(declare-fun lam3n5 () Int)
(declare-fun lam3n6 () Int)
(declare-fun lam4n0 () Int)
(declare-fun lam4n1 () Int)
(declare-fun lam5n0 () Int)
(declare-fun lam5n1 () Int)
(declare-fun lam6n0 () Int)
(declare-fun lam6n1 () Int)
(declare-fun main_n () Int)
(declare-fun undef2 () Int)
(declare-fun main_sum () Int)
(declare-fun FV_main_n_1 () Int)
(declare-fun FV_main_sum_1 () Int)
(declare-fun lam7n0 () Int)
(declare-fun lam7n1 () Int)
(declare-fun lam7n2 () Int)
(declare-fun lam7n3 () Int)
(declare-fun lam7n4 () Int)
(declare-fun lam8n0 () Int)
(declare-fun lam8n1 () Int)
(declare-fun lam8n2 () Int)
(declare-fun lam8n3 () Int)
(declare-fun lam8n4 () Int)
(declare-fun lam8n5 () Int)
(declare-fun lam9n0 () Int)
(declare-fun lam9n1 () Int)
(declare-fun lam9n2 () Int)
(declare-fun lam9n3 () Int)
(declare-fun lam9n4 () Int)
(declare-fun lam9n5 () Int)
(declare-fun lam9n6 () Int)
(declare-fun lam10n0 () Int)
(declare-fun lam10n1 () Int)
(declare-fun lam10n2 () Int)
(declare-fun lam10n3 () Int)
(declare-fun lam10n4 () Int)
(declare-fun lam10n5 () Int)
(declare-fun FV_main_n_2 () Int)
(declare-fun FV_main_sum_2 () Int)
(assert ( and ( <= ( - 1 ) Nl2main_n1 ) ( <= Nl2main_n1 1 ) ( <= ( - 1 ) Nl2main_sum1 ) ( <= Nl2main_sum1 1 ) ( <= ( - 1 ) Nl2main_n2 ) ( <= Nl2main_n2 1 ) ( <= ( - 1 ) Nl2main_sum2 ) ( <= Nl2main_sum2 1 ) ( <= ( - 1 ) Nl2main_n3 ) ( <= Nl2main_n3 1 ) ( <= ( - 1 ) Nl2main_sum3 ) ( <= Nl2main_sum3 1 ) ))
(assert ( or ( and ( >= lam0n0 0 ) ( >= lam0n1 0 ) ( >= lam0n2 0 ) ( >= lam0n3 0 ) ( >= lam0n4 0 ) ( >= lam0n5 0 ) ( >= lam0n6 0 ) ( > ( + ( * 50001 lam0n0 ) ( * 50001 lam0n1 ) ( * 50001 lam0n2 ) ( * 50001 lam0n3 ) ( * Nl2CT1 lam0n4 ) ( * Nl2CT2 lam0n5 ) ( * Nl2CT3 lam0n6 ) ( - 1 ) ) 0 ) ( = ( + ( * 1 lam0n0 ) ( * 1 lam0n1 ) ( * ( - 1 ) lam0n2 ) ( * Nl2main_n1 lam0n4 ) ( * Nl2main_n2 lam0n5 ) ( * Nl2main_n3 lam0n6 ) ) 0 ) ( = ( + ( * 1 lam0n1 ) ( * 2 lam0n2 ) ( * 1 lam0n3 ) ( * Nl2main_sum1 lam0n4 ) ( * Nl2main_sum2 lam0n5 ) ( * Nl2main_sum3 lam0n6 ) ) 0 ) ) ( and ( >= lam1n0 0 ) ( >= lam1n1 0 ) ( >= lam1n2 0 ) ( >= lam1n3 0 ) ( >= lam1n4 0 ) ( >= lam1n5 0 ) ( >= lam1n6 0 ) ( > ( + ( * 50001 lam1n0 ) ( * 50001 lam1n1 ) ( * 50001 lam1n2 ) ( * 50001 lam1n3 ) ( * Nl2CT1 lam1n4 ) ( * Nl2CT2 lam1n5 ) ( * Nl2CT3 lam1n6 ) ( - 1 ( + ( + Nl2CT1 ( * Nl2main_n1 ( - 1 ) ) ) ( * Nl2main_sum1 0 ) ) ) ) 0 ) ( = ( + ( * 1 lam1n0 ) ( * 1 lam1n1 ) ( * ( - 1 ) lam1n2 ) ( * Nl2main_n1 lam1n4 ) ( * Nl2main_n2 lam1n5 ) ( * Nl2main_n3 lam1n6 ) ( - ( + ( + 0 ( * Nl2main_n1 1 ) ) ( * Nl2main_sum1 1 ) ) ) ) 0 ) ( = ( + ( * 1 lam1n1 ) ( * 2 lam1n2 ) ( * 1 lam1n3 ) ( * Nl2main_sum1 lam1n4 ) ( * Nl2main_sum2 lam1n5 ) ( * Nl2main_sum3 lam1n6 ) ( - ( + 0 ( * Nl2main_sum1 1 ) ) ) ) 0 ) ) ))
(assert ( or ( and ( >= lam0n0 0 ) ( >= lam0n1 0 ) ( >= lam0n2 0 ) ( >= lam0n3 0 ) ( >= lam0n4 0 ) ( >= lam0n5 0 ) ( >= lam0n6 0 ) ( > ( + ( * 50001 lam0n0 ) ( * 50001 lam0n1 ) ( * 50001 lam0n2 ) ( * 50001 lam0n3 ) ( * Nl2CT1 lam0n4 ) ( * Nl2CT2 lam0n5 ) ( * Nl2CT3 lam0n6 ) ( - 1 ) ) 0 ) ( = ( + ( * 1 lam0n0 ) ( * 1 lam0n1 ) ( * ( - 1 ) lam0n2 ) ( * Nl2main_n1 lam0n4 ) ( * Nl2main_n2 lam0n5 ) ( * Nl2main_n3 lam0n6 ) ) 0 ) ( = ( + ( * 1 lam0n1 ) ( * 2 lam0n2 ) ( * 1 lam0n3 ) ( * Nl2main_sum1 lam0n4 ) ( * Nl2main_sum2 lam0n5 ) ( * Nl2main_sum3 lam0n6 ) ) 0 ) ) ( and ( >= lam2n0 0 ) ( >= lam2n1 0 ) ( >= lam2n2 0 ) ( >= lam2n3 0 ) ( >= lam2n4 0 ) ( >= lam2n5 0 ) ( >= lam2n6 0 ) ( > ( + ( * 50001 lam2n0 ) ( * 50001 lam2n1 ) ( * 50001 lam2n2 ) ( * 50001 lam2n3 ) ( * Nl2CT1 lam2n4 ) ( * Nl2CT2 lam2n5 ) ( * Nl2CT3 lam2n6 ) ( - 1 ( + ( + Nl2CT2 ( * Nl2main_n2 ( - 1 ) ) ) ( * Nl2main_sum2 0 ) ) ) ) 0 ) ( = ( + ( * 1 lam2n0 ) ( * 1 lam2n1 ) ( * ( - 1 ) lam2n2 ) ( * Nl2main_n1 lam2n4 ) ( * Nl2main_n2 lam2n5 ) ( * Nl2main_n3 lam2n6 ) ( - ( + ( + 0 ( * Nl2main_n2 1 ) ) ( * Nl2main_sum2 1 ) ) ) ) 0 ) ( = ( + ( * 1 lam2n1 ) ( * 2 lam2n2 ) ( * 1 lam2n3 ) ( * Nl2main_sum1 lam2n4 ) ( * Nl2main_sum2 lam2n5 ) ( * Nl2main_sum3 lam2n6 ) ( - ( + 0 ( * Nl2main_sum2 1 ) ) ) ) 0 ) ) ))
(assert ( or ( and ( >= lam0n0 0 ) ( >= lam0n1 0 ) ( >= lam0n2 0 ) ( >= lam0n3 0 ) ( >= lam0n4 0 ) ( >= lam0n5 0 ) ( >= lam0n6 0 ) ( > ( + ( * 50001 lam0n0 ) ( * 50001 lam0n1 ) ( * 50001 lam0n2 ) ( * 50001 lam0n3 ) ( * Nl2CT1 lam0n4 ) ( * Nl2CT2 lam0n5 ) ( * Nl2CT3 lam0n6 ) ( - 1 ) ) 0 ) ( = ( + ( * 1 lam0n0 ) ( * 1 lam0n1 ) ( * ( - 1 ) lam0n2 ) ( * Nl2main_n1 lam0n4 ) ( * Nl2main_n2 lam0n5 ) ( * Nl2main_n3 lam0n6 ) ) 0 ) ( = ( + ( * 1 lam0n1 ) ( * 2 lam0n2 ) ( * 1 lam0n3 ) ( * Nl2main_sum1 lam0n4 ) ( * Nl2main_sum2 lam0n5 ) ( * Nl2main_sum3 lam0n6 ) ) 0 ) ) ( and ( >= lam3n0 0 ) ( >= lam3n1 0 ) ( >= lam3n2 0 ) ( >= lam3n3 0 ) ( >= lam3n4 0 ) ( >= lam3n5 0 ) ( >= lam3n6 0 ) ( > ( + ( * 50001 lam3n0 ) ( * 50001 lam3n1 ) ( * 50001 lam3n2 ) ( * 50001 lam3n3 ) ( * Nl2CT1 lam3n4 ) ( * Nl2CT2 lam3n5 ) ( * Nl2CT3 lam3n6 ) ( - 1 ( + ( + Nl2CT3 ( * Nl2main_n3 ( - 1 ) ) ) ( * Nl2main_sum3 0 ) ) ) ) 0 ) ( = ( + ( * 1 lam3n0 ) ( * 1 lam3n1 ) ( * ( - 1 ) lam3n2 ) ( * Nl2main_n1 lam3n4 ) ( * Nl2main_n2 lam3n5 ) ( * Nl2main_n3 lam3n6 ) ( - ( + ( + 0 ( * Nl2main_n3 1 ) ) ( * Nl2main_sum3 1 ) ) ) ) 0 ) ( = ( + ( * 1 lam3n1 ) ( * 2 lam3n2 ) ( * 1 lam3n3 ) ( * Nl2main_sum1 lam3n4 ) ( * Nl2main_sum2 lam3n5 ) ( * Nl2main_sum3 lam3n6 ) ( - ( + 0 ( * Nl2main_sum3 1 ) ) ) ) 0 ) ) ))
(assert ( and ( <= ( + Nl2CT1 ( * Nl2main_n1 FV_main_n_1 ) ( * Nl2main_sum1 FV_main_sum_1 ) ) 0 ) ( <= ( + Nl2CT2 ( * Nl2main_n2 FV_main_n_1 ) ( * Nl2main_sum2 FV_main_sum_1 ) ) 0 ) ( <= ( + Nl2CT3 ( * Nl2main_n3 FV_main_n_1 ) ( * Nl2main_sum3 FV_main_sum_1 ) ) 0 ) ))
(assert ( or ( and ( >= lam7n0 0 ) ( >= lam7n1 0 ) ( >= lam7n2 0 ) ( >= lam7n3 0 ) ( >= lam7n4 0 ) ( > ( + ( * 50001 lam7n0 ) ( * ( - 50000 ) lam7n1 ) ( * Nl2CT1 lam7n2 ) ( * Nl2CT2 lam7n3 ) ( * Nl2CT3 lam7n4 ) ( - 1 ) ) 0 ) ( = ( + ( * ( - 1 ) lam7n0 ) ( * ( - 1 ) lam7n1 ) ( * Nl2main_n1 lam7n2 ) ( * Nl2main_n2 lam7n3 ) ( * Nl2main_n3 lam7n4 ) ) 0 ) ( = ( + ( * 2 lam7n0 ) ( * Nl2main_sum1 lam7n2 ) ( * Nl2main_sum2 lam7n3 ) ( * Nl2main_sum3 lam7n4 ) ) 0 ) ) ( and ( >= lam8n0 0 ) ( >= lam8n1 0 ) ( >= lam8n2 0 ) ( >= lam8n3 0 ) ( >= lam8n4 0 ) ( >= lam8n5 0 ) ( > ( + ( * ( - 50000 ) lam8n0 ) ( * ( - 50000 ) lam8n1 ) ( * ( - 50000 ) lam8n2 ) ( * Nl2CT1 lam8n3 ) ( * Nl2CT2 lam8n4 ) ( * Nl2CT3 lam8n5 ) ( - 1 ) ) 0 ) ( = ( + ( * 1 lam8n0 ) ( * ( - 1 ) lam8n1 ) ( * Nl2main_n1 lam8n3 ) ( * Nl2main_n2 lam8n4 ) ( * Nl2main_n3 lam8n5 ) ) 0 ) ( = ( + ( * ( - 2 ) lam8n0 ) ( * ( - 1 ) lam8n2 ) ( * Nl2main_sum1 lam8n3 ) ( * Nl2main_sum2 lam8n4 ) ( * Nl2main_sum3 lam8n5 ) ) 0 ) ) ( and ( >= lam9n0 0 ) ( >= lam9n1 0 ) ( >= lam9n2 0 ) ( >= lam9n3 0 ) ( >= lam9n4 0 ) ( >= lam9n5 0 ) ( >= lam9n6 0 ) ( > ( + ( * 50001 lam9n0 ) ( * ( - 50000 ) lam9n1 ) ( * ( - 50000 ) lam9n2 ) ( * ( - 50000 ) lam9n3 ) ( * Nl2CT1 lam9n4 ) ( * Nl2CT2 lam9n5 ) ( * Nl2CT3 lam9n6 ) ( - 1 ) ) 0 ) ( = ( + ( * 1 lam9n0 ) ( * 1 lam9n1 ) ( * ( - 1 ) lam9n2 ) ( * Nl2main_n1 lam9n4 ) ( * Nl2main_n2 lam9n5 ) ( * Nl2main_n3 lam9n6 ) ) 0 ) ( = ( + ( * ( - 2 ) lam9n1 ) ( * ( - 1 ) lam9n2 ) ( * ( - 1 ) lam9n3 ) ( * Nl2main_sum1 lam9n4 ) ( * Nl2main_sum2 lam9n5 ) ( * Nl2main_sum3 lam9n6 ) ) 0 ) ) ( and ( >= lam10n0 0 ) ( >= lam10n1 0 ) ( >= lam10n2 0 ) ( >= lam10n3 0 ) ( >= lam10n4 0 ) ( >= lam10n5 0 ) ( > ( + ( * 50001 lam10n0 ) ( * 50001 lam10n1 ) ( * ( - 50000 ) lam10n2 ) ( * Nl2CT1 lam10n3 ) ( * Nl2CT2 lam10n4 ) ( * Nl2CT3 lam10n5 ) ( - 1 ) ) 0 ) ( = ( + ( * 1 lam10n0 ) ( * 1 lam10n1 ) ( * 1 lam10n2 ) ( * Nl2main_n1 lam10n3 ) ( * Nl2main_n2 lam10n4 ) ( * Nl2main_n3 lam10n5 ) ) 0 ) ( = ( + ( * 1 lam10n1 ) ( * ( - 2 ) lam10n2 ) ( * Nl2main_sum1 lam10n3 ) ( * Nl2main_sum2 lam10n4 ) ( * Nl2main_sum3 lam10n5 ) ) 0 ) ) ))
(assert ( and ( and ( <= ( + Nl2CT1 ( * Nl2main_n1 FV_main_n_2 ) ( * Nl2main_sum1 FV_main_sum_2 ) ) 0 ) ( <= ( + Nl2CT2 ( * Nl2main_n2 FV_main_n_2 ) ( * Nl2main_sum2 FV_main_sum_2 ) ) 0 ) ( <= ( + Nl2CT3 ( * Nl2main_n3 FV_main_n_2 ) ( * Nl2main_sum3 FV_main_sum_2 ) ) 0 ) ) ( and ( <= ( + 50001 FV_main_n_2 ) 0 ) ( <= ( + 50001 FV_main_n_2 FV_main_sum_2 ) 0 ) ( <= ( + 50001 ( * ( - 1 ) FV_main_n_2 ) ( * 2 FV_main_sum_2 ) ) 0 ) ( <= ( + 50001 FV_main_sum_2 ) 0 ) ) ))
(check-sat)
(exit)
